(set-info :smt-lib-version 2.6)
(set-logic UFNIRA)
(set-info :source |
Generated by: Mirek Olšák, Mikoláš Janota, Chad E. Brown
Generated on: 2024-04-14
Application: Mathematics challenges involving function synthesis
Publications: https://arxiv.org/abs/2404.12048
From a collection by: Vít Musil
Source url: https://prase.cz/library/FunkcionalniRovniceVM/FunkcionalniRovniceVM.pdf
Problem number: Cvičení 8, Úloha 32
Original source: IMOSC-1979-26
|)
(set-info :license "https://creativecommons.org/licenses/by-nc/4.0/")
(set-info :category "crafted")
(set-info :status sat)

; Header
(declare-fun f (Real) Real)
(assert (forall ((x Real)) (=> (exists ((numerator Int) (denominator Int)) (and (distinct denominator 0) (= (/ (to_real numerator) (to_real denominator)) x))) (exists ((numerator Int) (denominator Int)) (and (distinct denominator 0) (= (/ (to_real numerator) (to_real denominator)) (f x)))))))

; Equations
(assert (= (f 1.0) 2.0))
(assert (forall ((x Real) (y Real)) (=> (and (exists ((numerator Int) (denominator Int)) (and (distinct denominator 0) (= (/ (to_real numerator) (to_real denominator)) x))) (exists ((numerator Int) (denominator Int)) (and (distinct denominator 0) (= (/ (to_real numerator) (to_real denominator)) y)))) (= (f (* x y)) (+ (- (* (f x) (f y)) (f (+ x y))) 1.0)))))

; Find all possible f

(check-sat)
(exit)
